
Gurobi 8.1.1 (win64, Python) logging started 10/29/19 14:43:46

Academic license - for non-commercial use only

Gurobi 8.1.1 (win64, Python) logging started 10/29/19 15:52:29

Academic license - for non-commercial use only
